unsat
( c0
  c1
  c10
  c100
  c1005
  c101
  c1013
  c1014
  c1015
  c1016
  c1017
  c1018
  c1019
  c102
  c1020
  c1021
  c1022
  c1023
  c1024
  c1025
  c1026
  c1027
  c1028
  c1029
  c103
  c1030
  c1031
  c1032
  c1033
  c1034
  c1035
  c1036
  c1037
  c1038
  c1039
  c104
  c1040
  c1041
  c1042
  c1043
  c1044
  c1045
  c1046
  c1047
  c1048
  c1049
  c105
  c1050
  c1051
  c1052
  c1053
  c1054
  c106
  c107
  c108
  c109
  c1097
  c1098
  c1099
  c11
  c110
  c1100
  c1101
  c1102
  c1103
  c1104
  c1105
  c1106
  c1107
  c1108
  c1109
  c111
  c1110
  c1111
  c1112
  c1119
  c112
  c1120
  c1121
  c1122
  c1123
  c1124
  c1126
  c1127
  c1128
  c1129
  c113
  c1130
  c1131
  c1132
  c1133
  c1134
  c1135
  c1136
  c1137
  c1138
  c1139
  c114
  c1140
  c1143
  c1144
  c1147
  c1148
  c115
  c1151
  c1152
  c1155
  c1156
  c1159
  c116
  c1160
  c1163
  c1164
  c1166
  c1167
  c1169
  c117
  c1170
  c1172
  c1173
  c1175
  c1176
  c1178
  c1179
  c118
  c1181
  c1182
  c1187
  c1188
  c119
  c1193
  c1194
  c1199
  c12
  c120
  c1200
  c1205
  c1206
  c121
  c1211
  c1212
  c1217
  c1218
  c122
  c1223
  c1224
  c1229
  c123
  c1230
  c1235
  c1236
  c124
  c1241
  c1242
  c1247
  c1248
  c125
  c1253
  c1254
  c1255
  c1259
  c126
  c1260
  c1261
  c1265
  c1266
  c1267
  c127
  c1271
  c1272
  c1273
  c1277
  c1278
  c1279
  c128
  c1283
  c1284
  c1285
  c1289
  c129
  c1290
  c1293
  c1294
  c1297
  c1298
  c13
  c130
  c1301
  c1302
  c1305
  c1306
  c1309
  c131
  c1310
  c1313
  c1314
  c1315
  c1316
  c1317
  c1318
  c132
  c1320
  c1321
  c1324
  c1325
  c133
  c1330
  c1333
  c1336
  c1339
  c134
  c1340
  c1341
  c1342
  c1343
  c1344
  c1345
  c1346
  c1347
  c1348
  c1349
  c135
  c1350
  c1351
  c1352
  c1353
  c1354
  c1355
  c136
  c137
  c138
  c139
  c14
  c140
  c141
  c142
  c143
  c144
  c145
  c146
  c147
  c148
  c149
  c15
  c150
  c151
  c152
  c153
  c154
  c155
  c156
  c157
  c158
  c159
  c16
  c160
  c161
  c162
  c163
  c164
  c165
  c166
  c167
  c168
  c169
  c17
  c170
  c171
  c18
  c19
  c2
  c20
  c21
  c22
  c23
  c24
  c245
  c25
  c250
  c251
  c252
  c256
  c257
  c258
  c259
  c26
  c260
  c261
  c262
  c263
  c264
  c265
  c266
  c267
  c268
  c269
  c27
  c270
  c271
  c272
  c273
  c274
  c28
  c287
  c288
  c289
  c29
  c290
  c291
  c292
  c293
  c294
  c295
  c296
  c297
  c298
  c299
  c30
  c300
  c301
  c302
  c303
  c304
  c31
  c32
  c329
  c33
  c330
  c331
  c332
  c333
  c334
  c335
  c336
  c337
  c338
  c339
  c34
  c340
  c35
  c36
  c365
  c366
  c367
  c368
  c369
  c37
  c370
  c372
  c373
  c374
  c377
  c378
  c379
  c38
  c380
  c381
  c382
  c383
  c384
  c389
  c39
  c390
  c391
  c392
  c393
  c394
  c395
  c396
  c397
  c398
  c399
  c4
  c40
  c400
  c401
  c402
  c403
  c404
  c405
  c406
  c407
  c408
  c409
  c41
  c410
  c411
  c412
  c413
  c414
  c417
  c42
  c420
  c421
  c422
  c423
  c424
  c425
  c426
  c427
  c428
  c429
  c43
  c430
  c431
  c433
  c434
  c435
  c436
  c438
  c439
  c44
  c443
  c444
  c445
  c446
  c447
  c449
  c45
  c450
  c451
  c452
  c454
  c455
  c456
  c457
  c458
  c46
  c460
  c461
  c463
  c464
  c465
  c466
  c467
  c468
  c469
  c47
  c470
  c471
  c472
  c473
  c474
  c475
  c476
  c477
  c478
  c479
  c48
  c480
  c481
  c482
  c483
  c484
  c485
  c486
  c487
  c488
  c489
  c49
  c490
  c491
  c492
  c493
  c494
  c495
  c496
  c497
  c498
  c499
  c5
  c50
  c509
  c51
  c510
  c511
  c512
  c513
  c515
  c516
  c517
  c518
  c52
  c520
  c521
  c525
  c526
  c527
  c528
  c529
  c53
  c531
  c532
  c533
  c534
  c536
  c537
  c538
  c539
  c54
  c540
  c542
  c543
  c545
  c546
  c547
  c548
  c549
  c55
  c550
  c551
  c552
  c553
  c554
  c555
  c556
  c557
  c558
  c559
  c56
  c560
  c561
  c562
  c563
  c564
  c565
  c566
  c567
  c568
  c569
  c57
  c570
  c571
  c572
  c573
  c574
  c575
  c576
  c577
  c578
  c579
  c58
  c580
  c581
  c59
  c591
  c592
  c593
  c594
  c595
  c597
  c598
  c599
  c6
  c60
  c600
  c602
  c603
  c607
  c608
  c609
  c61
  c610
  c611
  c613
  c614
  c615
  c616
  c618
  c619
  c62
  c620
  c621
  c622
  c624
  c625
  c627
  c628
  c629
  c63
  c630
  c631
  c632
  c633
  c634
  c635
  c636
  c637
  c638
  c639
  c64
  c640
  c641
  c642
  c643
  c644
  c645
  c646
  c647
  c648
  c649
  c65
  c650
  c651
  c652
  c653
  c654
  c655
  c656
  c657
  c658
  c659
  c66
  c660
  c661
  c662
  c663
  c67
  c673
  c674
  c675
  c676
  c677
  c679
  c68
  c680
  c681
  c682
  c684
  c685
  c689
  c69
  c690
  c691
  c692
  c693
  c695
  c696
  c697
  c698
  c7
  c70
  c700
  c701
  c702
  c703
  c704
  c706
  c707
  c709
  c71
  c710
  c711
  c712
  c713
  c714
  c715
  c716
  c717
  c718
  c719
  c72
  c720
  c721
  c722
  c723
  c724
  c725
  c726
  c727
  c728
  c729
  c73
  c730
  c731
  c732
  c733
  c734
  c735
  c736
  c737
  c738
  c739
  c74
  c740
  c741
  c742
  c743
  c744
  c745
  c75
  c755
  c756
  c757
  c758
  c759
  c76
  c761
  c762
  c763
  c764
  c766
  c767
  c77
  c771
  c772
  c773
  c774
  c775
  c777
  c778
  c779
  c78
  c780
  c782
  c783
  c784
  c785
  c786
  c788
  c789
  c79
  c791
  c792
  c793
  c794
  c795
  c796
  c797
  c798
  c799
  c8
  c80
  c800
  c801
  c802
  c803
  c804
  c805
  c806
  c807
  c808
  c809
  c81
  c810
  c811
  c812
  c813
  c814
  c815
  c816
  c817
  c818
  c819
  c82
  c820
  c821
  c822
  c823
  c824
  c825
  c826
  c827
  c83
  c837
  c838
  c839
  c84
  c840
  c841
  c843
  c844
  c845
  c846
  c848
  c849
  c85
  c853
  c854
  c855
  c856
  c857
  c859
  c86
  c860
  c861
  c862
  c864
  c865
  c866
  c867
  c868
  c87
  c870
  c871
  c873
  c874
  c875
  c876
  c877
  c878
  c879
  c88
  c880
  c881
  c882
  c883
  c884
  c885
  c886
  c887
  c888
  c889
  c89
  c890
  c891
  c892
  c893
  c894
  c895
  c896
  c897
  c898
  c899
  c9
  c90
  c900
  c901
  c902
  c903
  c904
  c905
  c906
  c907
  c908
  c909
  c91
  c919
  c92
  c93
  c94
  c96
  c97
  c98
  c99
  c992 )
